p cnf 44 125
a 40 9 0
e 1 2 3 4 5 6 7 8 10 11 12 13 14 15 16 17 18 19 20 21 22 23 24 25 26 27 28 29 30 31 32 33 34 35 36 37 38 39 41 42 43 44 0
3 -1 0
3 2 0
1 -2 -3 0
5 3 0
5 -4 0
-3 4 -5 0
7 8 -9 0
-7 -8 -9 0
7 -8 9 0
-7 8 9 0
11 -9 0
11 10 0
9 -10 -11 0
11 -12 -13 0
-11 12 -13 0
11 12 13 0
-11 -12 13 0
13 1 -14 0
-13 -1 -14 0
13 -1 14 0
-13 1 14 0
-15 -6 0
-15 14 0
6 -14 15 0
16 -5 0
16 15 0
5 -15 -16 0
17 3 0
17 -3 0
18 17 0
18 12 0
-17 -12 -18 0
8 -3 -19 0
-8 3 -19 0
8 3 19 0
-8 -3 19 0
-20 -18 0
-20 19 0
18 -19 20 0
-21 2 -22 0
21 -2 -22 0
-21 -2 22 0
21 2 22 0
-23 -21 0
-23 -22 0
21 22 23 0
20 23 -24 0
-20 -23 -24 0
20 -23 24 0
-20 23 24 0
-25 16 0
-25 -24 0
-16 24 25 0
-26 -3 0
-26 22 0
3 -22 26 0
-25 26 -27 0
25 -26 -27 0
-25 -26 27 0
25 26 27 0
28 -11 0
28 -11 0
11 -28 0
-21 -3 -29 0
21 3 -29 0
-21 3 29 0
21 -3 29 0
-30 29 0
-30 -11 0
-29 11 30 0
31 2 0
31 -18 0
-2 18 -31 0
31 -14 -32 0
-31 14 -32 0
31 14 32 0
-31 -14 32 0
-33 -30 0
-33 32 0
30 -32 33 0
-34 -28 0
-34 33 0
28 -33 34 0
-35 -1 -36 0
35 1 -36 0
-35 1 36 0
35 -1 36 0
6 -17 -37 0
-6 17 -37 0
6 17 37 0
-6 -17 37 0
-9 -8 -38 0
9 8 -38 0
-9 8 38 0
9 -8 38 0
39 -37 0
39 -38 0
37 38 -39 0
40 36 0
40 -39 0
-36 39 -40 0
41 -10 0
41 -22 0
10 22 -41 0
-42 40 0
-42 41 0
-40 -41 42 0
43 34 0
43 42 0
-34 -42 -43 0
44 -27 0
44 43 0
27 -43 -44 0
-28 -21 10 0
34 32 -20 3 11 29 0
14 44 -21 0
36 31 -32 0
-15 -12 -28 0
37 9 22 -11 35 -21 0
29 -3 -11 -28 14 -35 0
18 -34 43 -20 27 -19 -4 16 0
13 14 -10 -30 12 -33 0
2 29 33 -4 5 40 44 -38 0
-39 7 19 0
44 0
